int NumberPatients = 99
int NumberOfRooms = 8
int NumberSurgeons = 7
int NumberOfDays = 6
Duration = [47,47,50,123,201,53,47,98,103,98,119,146,97,59,166,46,78,85,119,47,98,238,103,32,29,159,47,66,30,98,46,105,66,53,100,98,98,98,119,93,85,72,119,103,98,78,98,103,263,60,119,101,60,74,119,159,117,98,66,38,98,66,46,50,198,210,47,39,217,47,157,119,66,31,60,72,31,32,64,60,58,66,119,119,115,98,267,138,32,93,30,201,78,119,32,64,238,66,210];
Priority = [0,0,1,0,0,0,0,0,0,0,1,0,0,0,0,0,0,0,0,0,0,0,0,1,0,0,0,0,0,0,0,0,0,0,0,0,0,0,0,0,0,0,0,0,0,1,0,0,0,0,0,0,0,0,0,0,0,0,0,0,0,0,0,0,0,0,0,0,0,0,0,0,0,0,1,0,0,0,0,1,0,0,0,0,0,0,1,0,0,0,0,0,0,0,0,0,0,0,0];
Waiting = [38,80,60,135,144,78,25,53,84,49,120,163,60,60,144,200,50,74,315,64,56,464,183,38,142,169,417,37,21,81,134,144,205,74,487,214,178,70,79,473,114,80,121,148,473,37,25,185,53,70,158,73,184,66,196,43,50,196,148,135,74,150,57,60,155,21,72,59,428,64,45,179,431,71,35,375,291,227,135,518,74,428,228,248,23,102,148,77,30,113,52,21,172,462,107,141,39,142,534];
Surgeon = [5,4,1,1,1,2,6,5,3,3,1,3,1,7,6,5,1,3,6,4,8,5,10,3,6,10,5,1,6,1,3,4,6,2,1,6,4,1,4,6,4,8,6,7,4,8,1,4,5,4,6,4,3,6,6,1,3,1,1,4,6,8,4,3,3,6,3,12,4,15,1,5,5,8,4,1,1,7,2,5,3,4,5,3,2,1,1,8,4,12,3,6,3,3,6,5,8,6,8];
BlockAvailability = [[[0,0],[0,0],[1,0],[0,0],[1,0],[0,0],[1,1],[1,1]],[[0,0],[0,0],[0,0],[0,0],[0,0],[1,0],[1,0],[0,0]],[[1,0],[1,0],[0,0],[1,0],[0,1],[0,1],[0,0],[0,1]],[[0,0],[0,0],[0,0],[1,0],[0,1],[0,0],[0,0],[0,0]],[[0,0],[0,1],[1,1],[0,0],[1,1],[0,1],[0,0],[0,0]],[[0,0],[0,0],[1,0],[0,1],[1,0],[0,0],[0,0],[1,0]]];
SurgeonAvailability = [[[0,1],[1,1],[1,0],[1,1],[1,1],[1,1]],[[1,0],[0,1],[0,1],[1,0],[1,1],[1,1]],[[1,1],[1,0],[1,1],[1,1],[1,1],[1,1]],[[1,1],[1,1],[1,1],[0,1],[1,0],[1,1]],[[1,0],[1,0],[0,1],[1,1],[1,1],[1,1]],[[1,1],[0,1],[1,1],[1,1],[0,0],[0,0]],[[1,1],[1,1],[0,1],[1,1],[1,1],[1,1]]];
